9
0 24 70 35 100 82 80 88 44 
54 0 43 73 100 22 80 35 96 
28 13 0 52 93 61 9 66 32 
8 13 94 0 20 67 65 81 40 
13 66 95 86 0 72 3 87 98 
33 5 75 23 58 0 8 52 55 
11 66 49 46 92 82 0 100 69 
54 70 29 66 44 12 50 0 19 
28 39 22 6 6 79 42 44 0 
